files/upTests/_zznested_singletons/nestedSingleton2ma-m/0001.eprime
language ESSENCE' 1.0

find pain_tuple1_tuple1:
        matrix indexed by [int(1..2), int(3, 4), int(4), int(1, 2)] of int(6, 7, 8, 9)
such that
    pain_tuple1_tuple1[1, 3, 4, 1] = 6,
    pain_tuple1_tuple1[1, 3, 4, 2] = 7,
    pain_tuple1_tuple1[1, 4, 4, 1] = 7,
    pain_tuple1_tuple1[1, 4, 4, 2] = 8,
    pain_tuple1_tuple1[2, 3, 4, 1] = 8,
    pain_tuple1_tuple1[2, 3, 4, 2] = 9,
    pain_tuple1_tuple1[2, 4, 4, 1] = 9,
    pain_tuple1_tuple1[2, 4, 4, 2] = 6
