files/upTests/_zznested_singletons/nestedSingleton2ma-m/0001.eprime.solution
language ESSENCE' 1.0
$ minion Nodes: 1
$ minion TotalTime: 0.000407
$ Savile Row TotalTime: 0.121
letting pain_tuple1_tuple1 be [[[[6, 7;int(1..2)];int(1..1)], 
[[7, 8;int(1..2)];int(1..1)];int(1..2)], 
[[[8, 9;int(1..2)];int(1..1)], 
[[9, 6;int(1..2)];int(1..1)];int(1..2)];int(1..2)]
